# Objective value = 2.9864837545509175e+02
x[0] 0
x[1] 1
x[2] 1
x[3] 0
x[4] 0
x[5] 0
x[6] 1
x[7] 0
x[8] 0
x[9] 1
x[10] 0
x[11] 0
x[12] 0
x[13] 0
x[14] 0
x[15] 0
x[16] 1
x[17] 1
x[18] 0
x[19] 1
x[20] 0
x[21] 1
x[22] 0
x[23] 1
x[24] 1
x[25] 0
x[26] 0
x[27] 0
x[28] 0
x[29] 0
x[30] 0
x[31] 0
x[32] 0
x[33] 0
x[34] 1
x[35] 1
x[36] 0
x[37] 0
x[38] 0
x[39] 0
x[40] 1
x[41] 0
x[42] 0
x[43] 0
x[44] 1
x[45] 1
x[46] 0
x[47] 1
x[48] 1
x[49] 1
x[50] 1
x[51] 0
x[52] 0
x[53] 0
x[54] 1
x[55] 0
x[56] 0
x[57] 1
x[58] 0
x[59] 1
x[60] 1
x[61] 0
x[62] 0
x[63] 1
x[64] 1
x[65] 1
x[66] 0
x[67] 1
x[68] 0
x[69] 0
x[70] 1
x[71] 0
x[72] 0
x[73] 0
x[74] 1
x[75] 0
x[76] 0
x[77] 1
x[78] 1
x[79] 0
x[80] 1
x[81] 0
x[82] 1
x[83] 1
x[84] 0
x[85] 1
x[86] 0
x[87] 0
x[88] 0
x[89] 0
x[90] 0
x[91] 1
x[92] 0
x[93] 1
x[94] 0
x[95] 1
x[96] 1
x[97] 1
x[98] 0
x[99] 0
x[100] 0
x[101] 1
x[102] 1
x[103] 1
x[104] 0
x[105] 1
x[106] 0
x[107] 1
x[108] 1
x[109] 1
x[110] 1
x[111] 1
x[112] 1
x[113] 0
x[114] 1
x[115] 0
x[116] 1
x[117] 1
x[118] 1
x[119] 1
x[120] 1
x[121] 1
x[122] 0
x[123] 0
x[124] 0
x[125] 1
x[126] 0
x[127] 0
x[128] 1
x[129] 0
x[130] 1
x[131] 1
x[132] 1
x[133] 1
x[134] 1
x[135] 1
x[136] 0
x[137] 1
x[138] 1
x[139] 0
x[140] 0
x[141] 0
x[142] 1
x[143] 0
x[144] 0
x[145] 0
x[146] 0
x[147] 1
x[148] 1
x[149] 0
x[150] 0
x[151] 1
x[152] 0
x[153] 1
x[154] 1
x[155] 1
x[156] 0
x[157] 1
x[158] 1
x[159] 1
x[160] 0
x[161] 1
x[162] 0
x[163] 0
x[164] 1
x[165] 1
x[166] 1
x[167] 1
x[168] 0
x[169] 1
x[170] 1
x[171] 1
x[172] 1
x[173] 1
x[174] 0
x[175] 1
x[176] 0
x[177] 1
x[178] 1
x[179] 0
x[180] 0
x[181] 0
x[182] 1
x[183] 1
x[184] 1
x[185] 1
x[186] 0
x[187] 0
x[188] 0
x[189] 0
x[190] 0
x[191] 1
x[192] 1
x[193] 1
x[194] 1
x[195] 0
x[196] 0
x[197] 1
x[198] 1
x[199] 0
x[200] 0
x[201] 0
x[202] 0
x[203] 0
x[204] 1
x[205] 0
x[206] 1
x[207] 1
x[208] 1
x[209] 1
x[210] 1
x[211] 0
x[212] 0
x[213] 0
x[214] 0
x[215] 1
x[216] 0
x[217] 1
x[218] 1
x[219] 1
x[220] 0
x[221] 0
x[222] 1
x[223] 0
x[224] 1
x[225] 1
x[226] 1
x[227] 1
x[228] 1
x[229] 0
x[230] 1
x[231] 0
x[232] 0
x[233] 0
x[234] 1
x[235] 0
x[236] 1
x[237] 1
x[238] 0
x[239] 0
x[240] 0
x[241] 1
x[242] 1
x[243] 0
x[244] 0
x[245] 1
x[246] 1
x[247] 1
x[248] 0
x[249] 1
x[250] 0
x[251] 0
x[252] 0
x[253] 0
x[254] 0
x[255] 0
x[256] 0
x[257] 0
x[258] 0
x[259] 1
x[260] 1
x[261] 0
x[262] 0
x[263] 1
x[264] 0
x[265] 1
x[266] 1
x[267] 1
x[268] 1
x[269] 1
x[270] 1
x[271] 1
x[272] 0
x[273] 1
x[274] 0
x[275] 0
x[276] 1
x[277] 0
x[278] 0
x[279] 1
x[280] 1
x[281] 1
x[282] 0
x[283] 0
x[284] 0
x[285] 0
x[286] 1
x[287] 1
x[288] 1
x[289] 0
x[290] 1
x[291] 1
x[292] 0
x[293] 0
x[294] 1
x[295] 0
x[296] 1
x[297] 1
x[298] 1
x[299] 1
x[300] 0
x[301] 0
x[302] 0
x[303] 1
x[304] 0
x[305] 0
x[306] 1
x[307] 1
x[308] 1
x[309] 1
x[310] 0
x[311] 1
x[312] 1
x[313] 1
x[314] 0
x[315] 0
x[316] 0
x[317] 1
x[318] 0
x[319] 0
x[320] 1
x[321] 1
x[322] 0
x[323] 1
x[324] 1
x[325] 0
x[326] 0
x[327] 0
x[328] 0
x[329] 1
x[330] 1
x[331] 1
x[332] 0
x[333] 1
x[334] 0
x[335] 0
x[336] 1
x[337] 1
x[338] 1
x[339] 0
x[340] 1
x[341] 0
x[342] 0
x[343] 0
x[344] 0
x[345] 0
x[346] 0
x[347] 0
x[348] 1
x[349] 1
x[350] 0
x[351] 1
x[352] 0
x[353] 1
x[354] 1
x[355] 0
x[356] 1
x[357] 0
x[358] 1
x[359] 0
x[360] 1
x[361] 1
x[362] 0
x[363] 1
x[364] 1
x[365] 1
x[366] 1
x[367] 0
x[368] 0
x[369] 0
x[370] 0
x[371] 1
x[372] 1
x[373] 1
x[374] 1
x[375] 1
x[376] 1
x[377] 1
x[378] 0
x[379] 1
x[380] 1
x[381] 0
x[382] 1
x[383] 0
x[384] 1
x[385] 1
x[386] 1
x[387] 0
x[388] 0
x[389] 0
x[390] 0
x[391] 1
x[392] 1
x[393] 1
x[394] 1
x[395] 1
x[396] 0
x[397] 1
x[398] 0
x[399] 1
x[400] 1
x[401] 1
x[402] 1
x[403] 1
x[404] 1
x[405] 0
x[406] 1
x[407] 0
x[408] 0
x[409] 0
x[410] 1
x[411] 0
x[412] 0
x[413] 0
x[414] 1
x[415] 0
x[416] 0
x[417] 0
x[418] 0
x[419] 0
x[420] 1
x[421] 1
x[422] 0
x[423] 1
x[424] 0
x[425] 1
x[426] 0
x[427] 1
x[428] 0
x[429] 1
x[430] 0
x[431] 0
x[432] 1
x[433] 0
x[434] 0
x[435] 1
x[436] 1
x[437] 1
x[438] 0
x[439] 0
x[440] 1
x[441] 0
x[442] 0
x[443] 0
x[444] 0
x[445] 0
x[446] 0
x[447] 1
x[448] 1
x[449] 0
x[450] 0
x[451] 0
x[452] 1
x[453] 1
x[454] 0
x[455] 1
x[456] 1
x[457] 0
x[458] 1
x[459] 0
x[460] 1
x[461] 0
x[462] 0
x[463] 1
x[464] 0
x[465] 0
x[466] 1
x[467] 1
x[468] 0
x[469] 0
x[470] 0
x[471] 0
x[472] 0
x[473] 0
x[474] 0
x[475] 0
x[476] 0
x[477] 0
x[478] 1
x[479] 0
x[480] 1
x[481] 1
x[482] 0
x[483] 0
x[484] 0
x[485] 1
x[486] 0
x[487] 1
x[488] 0
x[489] 0
x[490] 0
x[491] 0
x[492] 0
x[493] 0
x[494] 1
x[495] 0
x[496] 1
x[497] 0
x[498] 0
x[499] 1
x[500] 0
x[501] 0
x[502] 1
x[503] 0
x[504] 0
x[505] 0
x[506] 1
x[507] 0
x[508] 1
x[509] 1
x[510] 1
x[511] 1
x[512] 1
x[513] 1
x[514] 0
x[515] 0
x[516] 0
x[517] 1
x[518] 1
x[519] 1
x[520] 0
x[521] 0
x[522] 0
x[523] 0
x[524] 1
x[525] 1
x[526] 1
x[527] 0
x[528] 0
x[529] 1
x[530] 1
x[531] 1
x[532] 1
x[533] 0
x[534] 1
x[535] 1
x[536] 1
x[537] 0
x[538] 1
x[539] 0
x[540] 0
x[541] 1
x[542] 0
x[543] 0
x[544] 1
x[545] 1
x[546] 0
x[547] 1
x[548] 0
x[549] 0
x[550] 1
x[551] 0
x[552] 0
x[553] 1
x[554] 1
x[555] 1
x[556] 1
x[557] 0
x[558] 0
x[559] 0
x[560] 0
x[561] 1
x[562] 0
x[563] 1
x[564] 1
x[565] 1
x[566] 0
x[567] 0
x[568] 0
x[569] 0
x[570] 0
x[571] 0
x[572] 0
x[573] 1
x[574] 1
x[575] 0
x[576] 1
x[577] 0
x[578] 1
x[579] 0
x[580] 1
x[581] 0
x[582] 0
x[583] 1
x[584] 0
x[585] 0
x[586] 1
x[587] 1
x[588] 0
x[589] 1
x[590] 1
x[591] 0
x[592] 0
x[593] 1
x[594] 0
x[595] 0
x[596] 1
x[597] 0
x[598] 0
x[599] 1
x[600] 1
x[601] 0
x[602] 0
x[603] 0
x[604] 0
x[605] 0
x[606] 1
x[607] 1
x[608] 1
x[609] 1
x[610] 1
x[611] 0
x[612] 0
x[613] 1
x[614] 0
x[615] 0
x[616] 0
x[617] 1
x[618] 1
x[619] 0
x[620] 1
x[621] 1
x[622] 1
x[623] 0
x[624] 0
x[625] 0
x[626] 0
x[627] 1
x[628] 0
x[629] 0
x[630] 1
x[631] 1
x[632] 0
x[633] 0
x[634] 1
x[635] 1
x[636] 1
x[637] 0
x[638] 0
x[639] 0
x[640] 1
x[641] 0
x[642] 0
x[643] 0
x[644] 0
x[645] 1
x[646] 0
x[647] 1
x[648] 0
x[649] 1
x[650] 0
x[651] 0
x[652] 0
x[653] 0
x[654] 1
x[655] 1
x[656] 1
x[657] 0
x[658] 1
x[659] 1
x[660] 0
x[661] 1
x[662] 0
x[663] 0
x[664] 1
x[665] 1
x[666] 0
x[667] 1
x[668] 1
x[669] 0
x[670] 1
x[671] 0
x[672] 0
x[673] 1
x[674] 1
x[675] 1
x[676] 0
x[677] 0
x[678] 1
x[679] 0
x[680] 0
x[681] 1
x[682] 0
x[683] 1
x[684] 1
x[685] 0
x[686] 0
x[687] 0
x[688] 0
x[689] 1
x[690] 0
x[691] 1
x[692] 0
x[693] 1
x[694] 0
x[695] 1
x[696] 0
x[697] 1
x[698] 0
x[699] 0
x[700] 1
x[701] 0
x[702] 0
x[703] 1
x[704] 1
x[705] 0
x[706] 0
x[707] 1
x[708] 0
x[709] 1
x[710] 1
x[711] 1
x[712] 0
x[713] 0
x[714] 1
x[715] 0
x[716] 1
x[717] 1
x[718] 1
x[719] 0
x[720] 1
x[721] 0
x[722] 1
x[723] 1
x[724] 0
x[725] 1
x[726] 1
x[727] 1
x[728] 0
x[729] 0
x[730] 1
x[731] 0
x[732] 1
x[733] 0
x[734] 0
x[735] 0
x[736] 0
x[737] 0
x[738] 0
x[739] 1
x[740] 0
x[741] 1
x[742] 0
x[743] 1
x[744] 1
x[745] 1
x[746] 1
x[747] 1
x[748] 0
x[749] 0
x[750] 1
x[751] 1
x[752] 1
x[753] 0
x[754] 0
x[755] 1
x[756] 0
x[757] 0
x[758] 1
x[759] 0
x[760] 0
x[761] 0
x[762] 0
x[763] 0
x[764] 1
x[765] 0
x[766] 0
x[767] 0
x[768] 1
x[769] 1
x[770] 0
x[771] 1
x[772] 0
x[773] 0
x[774] 1
x[775] 1
x[776] 0
x[777] 0
x[778] 0
x[779] 0
x[780] 0
x[781] 0
x[782] 1
x[783] 0
x[784] 0
x[785] 1
x[786] 1
x[787] 0
x[788] 1
x[789] 1
x[790] 0
x[791] 0
x[792] 0
x[793] 0
x[794] 0
x[795] 1
x[796] 0
x[797] 1
x[798] 0
x[799] 1
x[800] 0
x[801] 0
x[802] 0
x[803] 1
x[804] 0
x[805] 0
x[806] 1
x[807] 0
x[808] 0
x[809] 1
x[810] 0
x[811] 1
x[812] 0
x[813] 0
x[814] 1
x[815] 0
x[816] 0
x[817] 0
x[818] 0
x[819] 0
x[820] 1
x[821] 0
x[822] 1
x[823] 0
x[824] 0
x[825] 0
x[826] 0
x[827] 1
x[828] 0
x[829] 0
x[830] 1
x[831] 1
x[832] 1
x[833] 1
x[834] 1
x[835] 1
x[836] 0
x[837] 0
x[838] 1
x[839] 1
x[840] 1
x[841] 1
x[842] 0
x[843] 1
x[844] 0
x[845] 1
x[846] 0
x[847] 1
x[848] 1
x[849] 0
x[850] 0
x[851] 0
x[852] 1
x[853] 1
x[854] 0
x[855] 0
x[856] 1
x[857] 0
x[858] 1
x[859] 1
x[860] 0
x[861] 0
x[862] 1
x[863] 0
x[864] 1
x[865] 0
x[866] 1
x[867] 1
x[868] 1
x[869] 0
x[870] 1
x[871] 0
x[872] 0
x[873] 1
x[874] 0
x[875] 1
x[876] 0
x[877] 0
x[878] 1
x[879] 0
x[880] 1
x[881] 1
x[882] 0
x[883] 1
x[884] 0
x[885] 1
x[886] 1
x[887] 0
x[888] 0
x[889] 1
x[890] 1
x[891] 1
x[892] 0
x[893] 0
x[894] 1
x[895] 0
x[896] 1
x[897] 0
x[898] 1
x[899] 1
x[900] 0
x[901] 1
x[902] 0
x[903] 0
x[904] 1
x[905] 0
x[906] 0
x[907] 0
x[908] 1
x[909] 1
x[910] 1
x[911] 0
x[912] 1
x[913] 0
x[914] 1
x[915] 0
x[916] 1
x[917] 1
x[918] 1
x[919] 0
x[920] 1
x[921] 0
x[922] 0
x[923] 1
x[924] 0
x[925] 0
x[926] 1
x[927] 1
x[928] 0
x[929] 1
x[930] 1
x[931] 0
x[932] 0
x[933] 0
x[934] 1
x[935] 1
x[936] 1
x[937] 1
x[938] 1
x[939] 0
x[940] 1
x[941] 1
x[942] 0
x[943] 1
x[944] 0
x[945] 0
x[946] 0
x[947] 1
x[948] 0
x[949] 1
x[950] 0
x[951] 1
x[952] 0
x[953] 0
x[954] 0
x[955] 1
x[956] 0
x[957] 1
x[958] 1
x[959] 0
x[960] 1
x[961] 0
x[962] 1
x[963] 1
x[964] 0
x[965] 1
x[966] 0
x[967] 1
x[968] 1
x[969] 0
x[970] 0
x[971] 0
x[972] 1
x[973] 0
x[974] 0
x[975] 1
x[976] 0
x[977] 0
x[978] 1
x[979] 1
x[980] 1
x[981] 1
x[982] 0
x[983] 0
x[984] 1
x[985] 0
x[986] 0
x[987] 1
x[988] 0
x[989] 1
x[990] 1
x[991] 0
x[992] 1
x[993] 1
x[994] 1
x[995] 1
x[996] 1
x[997] 0
x[998] 1
x[999] 0
